p cnf 49 166
3 1 0
3 -2 0
-1 2 -3 0
6 -5 0
6 -4 0
5 4 -6 0
-7 -4 0
-7 -6 0
4 6 7 0
-1 -8 0
1 -8 0
9 -2 0
9 6 0
2 -6 -9 0
10 -9 0
10 6 0
9 -6 -10 0
13 -11 0
13 -12 0
11 12 -13 0
14 -10 0
14 13 0
10 -13 -14 0
-15 -8 0
-15 14 0
8 -14 15 0
7 15 -16 0
-7 -15 -16 0
7 -15 16 0
-7 15 16 0
-17 3 0
-17 16 0
-3 -16 17 0
-19 18 0
-19 2 0
-18 -2 19 0
20 19 0
20 2 0
-19 -2 -20 0
-21 -5 -22 0
21 5 -22 0
-21 5 22 0
21 -5 22 0
-23 -20 0
-23 22 0
20 -22 23 0
25 -22 0
25 -11 0
22 11 -25 0
26 -24 0
26 -25 0
24 25 -26 0
-27 23 0
-27 -26 0
-23 26 27 0
17 -27 -28 0
-17 27 -28 0
17 27 28 0
-17 -27 28 0
-29 24 0
-29 -25 0
-24 25 29 0
11 -29 -30 0
-11 29 -30 0
11 29 30 0
-11 -29 30 0
-31 -12 0
-31 10 0
12 -10 31 0
32 -30 0
32 -31 0
30 31 -32 0
34 33 0
34 4 0
-33 -4 -34 0
-35 22 0
-35 20 0
-22 -20 35 0
36 35 0
36 11 0
-35 -11 -36 0
-37 21 0
-37 -4 0
-21 4 37 0
-38 -36 0
-38 -37 0
36 37 38 0
-12 18 -39 0
12 -18 -39 0
-12 -18 39 0
12 18 39 0
-22 5 -40 0
22 -5 -40 0
-22 -5 40 0
22 5 40 0
-39 -40 -41 0
39 40 -41 0
-39 40 41 0
39 -40 41 0
38 -41 -42 0
-38 41 -42 0
38 41 42 0
-38 -41 42 0
-34 42 -43 0
34 -42 -43 0
-34 -42 43 0
34 42 43 0
-4 18 -44 0
4 -18 -44 0
-4 -18 44 0
4 18 44 0
-45 43 0
-45 -44 0
-43 44 45 0
11 -21 -46 0
-11 21 -46 0
11 21 46 0
-11 -21 46 0
47 -45 0
47 -46 0
45 46 -47 0
-48 32 0
-48 47 0
-32 -47 48 0
-49 28 0
-49 -48 0
-28 48 49 0
-22 -17 -26 -1 15 45 0
16 -23 42 37 0
-6 14 0
-36 -41 5 -25 28 0
3 -26 -16 5 0
34 -43 0
-46 40 -49 29 -7 0
-38 14 33 0
-46 -7 38 0
35 15 49 -3 5 0
1 -31 -32 -23 22 0
32 21 3 0
-20 4 -16 3 2 0
47 16 -45 20 42 -2 0
46 -38 0
-38 -12 -3 0
1 -2 0
-10 -49 9 22 0
30 9 0
34 35 -47 0
-47 -7 -10 -14 0
25 19 31 0
-40 -46 -29 0
-19 34 -36 23 8 2 0
9 13 -29 1 0
6 10 29 15 0
9 -27 -38 0
26 17 25 -33 0
5 -30 3 32 47 43 0
29 5 0
5 36 0
28 -26 47 27 -11 30 0
9 -6 -21 39 0
-33 14 -49 -30 0
-43 -7 -31 33 0
17 6 -49 21 8 42 0
43 -8 -35 17 0
29 41 -24 39 0
49 0
